Minimize
M1 + M2
Subject To
x0,7 + x0,8 + x0,9 + x0,10 + x0,11 + x0,12 + x0,13 + x0,14 + x0,15 = 1
x1,7 + x1,8 + x1,9 + x1,10 + x1,11 + x1,12 + x1,13 + x1,14 + x1,15 = 1
x2,6 + x2,7 + x2,8 + x2,9 + x2,10 + x2,11 + x2,12 + x2,13 + x2,14 = 1
x3,10 + x3,11 + x3,12 + x3,13 + x3,14 + x3,15 = 1
x4,10 + x4,11 + x4,12 + x4,13 + x4,14 + x4,15 = 1
x5,9 + x5,10 + x5,11 + x5,12 + x5,13 + x5,14 = 1
x6,10 + x6,11 + x6,12 + x6,13 + x6,14 + x6,15 = 1
x7,10 + x7,11 + x7,12 + x7,13 + x7,14 + x7,15 = 1
x8,9 + x8,10 + x8,11 + x8,12 + x8,13 + x8,14 = 1
x9,7 + x9,8 + x9,9 + x9,10 + x9,11 + x9,12 + x9,13 + x9,14 + x9,15 = 1
x10,7 + x10,8 + x10,9 + x10,10 + x10,11 + x10,12 + x10,13 + x10,14 + x10,15 = 1
x11,6 + x11,7 + x11,8 + x11,9 + x11,10 + x11,11 + x11,12 + x11,13 + x11,14 = 1
x12,7 + x12,8 + x12,9 + x12,10 + x12,11 + x12,12 + x12,13 + x12,14 + x12,15 = 1
x13,7 + x13,8 + x13,9 + x13,10 + x13,11 + x13,12 + x13,13 + x13,14 + x13,15 = 1
x14,6 + x14,7 + x14,8 + x14,9 + x14,10 + x14,11 + x14,12 + x14,13 + x14,14 = 1
x15,7 + x15,8 + x15,9 + x15,10 + x15,11 + x15,12 + x15,13 + x15,14 + x15,15 = 1
x16,7 + x16,8 + x16,9 + x16,10 + x16,11 + x16,12 + x16,13 + x16,14 + x16,15 = 1
x17,6 + x17,7 + x17,8 + x17,9 + x17,10 + x17,11 + x17,12 + x17,13 + x17,14 = 1
x18,7 + x18,8 + x18,9 + x18,10 + x18,11 + x18,12 + x18,13 + x18,14 + x18,15 = 1
x19,7 + x19,8 + x19,9 + x19,10 + x19,11 + x19,12 + x19,13 + x19,14 + x19,15 = 1
x20,6 + x20,7 + x20,8 + x20,9 + x20,10 + x20,11 + x20,12 + x20,13 + x20,14 = 1
x21,7 + x21,8 + x21,9 + x21,10 + x21,11 + x21,12 + x21,13 + x21,14 + x21,15 = 1
x22,7 + x22,8 + x22,9 + x22,10 + x22,11 + x22,12 + x22,13 + x22,14 + x22,15 = 1
x23,6 + x23,7 + x23,8 + x23,9 + x23,10 + x23,11 + x23,12 + x23,13 + x23,14 = 1
x24,7 + x24,8 + x24,9 + x24,10 + x24,11 + x24,12 = 1
x25,7 + x25,8 + x25,9 + x25,10 + x25,11 + x25,12 = 1
x26,6 + x26,7 + x26,8 + x26,9 + x26,10 + x26,11 = 1
x27,6 + x27,7 + x27,8 + x27,9 + x27,10 + x27,11 = 1
x28,5 + x28,6 + x28,7 + x28,8 + x28,9 + x28,10 = 1
x29,5 + x29,6 + x29,7 + x29,8 + x29,9 + x29,10 = 1
x30,5 + x30,6 + x30,7 + x30,8 + x30,9 + x30,10 = 1
x31,5 + x31,6 + x31,7 + x31,8 + x31,9 + x31,10 = 1
x32,3 + x32,4 + x32,5 + x32,6 + x32,7 + x32,8 = 1
x33,3 + x33,4 + x33,5 + x33,6 + x33,7 + x33,8 = 1
x34,3 + x34,4 + x34,5 + x34,6 + x34,7 + x34,8 = 1
x35,3 + x35,4 + x35,5 + x35,6 + x35,7 + x35,8 = 1
x36,3 + x36,4 + x36,5 + x36,6 + x36,7 + x36,8 = 1
x37,3 + x37,4 + x37,5 + x37,6 + x37,7 + x37,8 = 1
x38,3 + x38,4 + x38,5 + x38,6 + x38,7 + x38,8 = 1
x39,3 + x39,4 + x39,5 + x39,6 + x39,7 + x39,8 = 1
x40,2 + x40,3 + x40,4 + x40,5 + x40,6 + x40,7 = 1
x41,2 + x41,3 + x41,4 + x41,5 + x41,6 + x41,7 = 1
x42,2 + x42,3 + x42,4 + x42,5 + x42,6 + x42,7 = 1
x43,2 + x43,3 + x43,4 + x43,5 + x43,6 + x43,7 = 1
x44,5 + x44,6 + x44,7 + x44,8 + x44,9 + x44,10 + x44,11 + x44,12 + x44,13 = 1
x45,5 + x45,6 + x45,7 + x45,8 + x45,9 + x45,10 + x45,11 + x45,12 + x45,13 = 1
x46,5 + x46,6 + x46,7 + x46,8 + x46,9 + x46,10 + x46,11 + x46,12 + x46,13 = 1
x47,5 + x47,6 + x47,7 + x47,8 + x47,9 + x47,10 + x47,11 + x47,12 + x47,13 = 1
x48,3 + x48,4 + x48,5 + x48,6 + x48,7 + x48,8 + x48,9 + x48,10 + x48,11 = 1
x49,3 + x49,4 + x49,5 + x49,6 + x49,7 + x49,8 + x49,9 + x49,10 + x49,11 = 1
x50,3 + x50,4 + x50,5 + x50,6 + x50,7 + x50,8 + x50,9 + x50,10 + x50,11 = 1
x51,3 + x51,4 + x51,5 + x51,6 + x51,7 + x51,8 + x51,9 + x51,10 + x51,11 = 1
x52,3 + x52,4 + x52,5 + x52,6 + x52,7 + x52,8 + x52,9 + x52,10 + x52,11 = 1
x53,3 + x53,4 + x53,5 + x53,6 + x53,7 + x53,8 + x53,9 + x53,10 + x53,11 = 1
x54,2 + x54,3 + x54,4 + x54,5 + x54,6 + x54,7 + x54,8 + x54,9 + x54,10 = 1
x55,2 + x55,3 + x55,4 + x55,5 + x55,6 + x55,7 + x55,8 + x55,9 + x55,10 = 1
x56,2 + x56,3 + x56,4 + x56,5 + x56,6 + x56,7 + x56,8 + x56,9 + x56,10 = 1
x57,2 + x57,3 + x57,4 + x57,5 + x57,6 + x57,7 + x57,8 + x57,9 + x57,10 = 1
x58,1 + x58,2 + x58,3 + x58,4 + x58,5 + x58,6 = 1
x59,1 + x59,2 + x59,3 + x59,4 + x59,5 + x59,6 = 1
x60,1 + x60,2 + x60,3 + x60,4 + x60,5 + x60,6 = 1
x61,1 + x61,2 + x61,3 + x61,4 + x61,5 + x61,6 = 1
x62,1 + x62,2 + x62,3 + x62,4 + x62,5 + x62,6 + x62,7 + x62,8 + x62,9 = 1
x63,1 + x63,2 + x63,3 + x63,4 + x63,5 + x63,6 + x63,7 + x63,8 + x63,9 = 1
x64,1 + x64,2 + x64,3 + x64,4 + x64,5 + x64,6 + x64,7 + x64,8 + x64,9 = 1
x65,1 + x65,2 + x65,3 + x65,4 + x65,5 + x65,6 + x65,7 + x65,8 + x65,9 = 1
x58,1 + x59,1 + x60,1 + x61,1 + x62,1 + x63,1 + x64,1 + x65,1 - M2 <= 0
x40,2 + x41,2 + x42,2 + x43,2 + x54,2 + x55,2 + x56,2 + x57,2 + x58,2 + x59,2 + x60,2 + x61,2 + x62,2 + x63,2 + x64,2 + x65,2 - M2 <= 0
x40,3 + x41,3 + x42,3 + x43,3 + x54,3 + x55,3 + x56,3 + x57,3 + x58,3 + x59,3 + x60,3 + x61,3 + x62,3 + x63,3 + x64,3 + x65,3 - M2 <= 0
x32,3 + x32,2 + x33,3 + x33,2 + x34,3 + x34,2 + x35,3 + x35,2 + x36,3 + x36,2 + x37,3 + x37,2 + x38,3 + x38,2 + x39,3 + x39,2 + x48,3 + x48,2 + x49,3 + x49,2 + x50,3 + x50,2 + x51,3 + x51,2 + x52,3 + x52,2 + x53,3 + x53,2 - M1 <= 0
x40,4 + x41,4 + x42,4 + x43,4 + x54,4 + x55,4 + x56,4 + x57,4 + x58,4 + x59,4 + x60,4 + x61,4 + x62,4 + x63,4 + x64,4 + x65,4 - M2 <= 0
x32,4 + x32,3 + x33,4 + x33,3 + x34,4 + x34,3 + x35,4 + x35,3 + x36,4 + x36,3 + x37,4 + x37,3 + x38,4 + x38,3 + x39,4 + x39,3 + x48,4 + x48,3 + x49,4 + x49,3 + x50,4 + x50,3 + x51,4 + x51,3 + x52,4 + x52,3 + x53,4 + x53,3 - M1 <= 0
x28,5 + x29,5 + x30,5 + x31,5 + x40,5 + x41,5 + x42,5 + x43,5 + x44,5 + x45,5 + x46,5 + x47,5 + x54,5 + x55,5 + x56,5 + x57,5 + x58,5 + x59,5 + x60,5 + x61,5 + x62,5 + x63,5 + x64,5 + x65,5 - M2 <= 0
x32,5 + x32,4 + x33,5 + x33,4 + x34,5 + x34,4 + x35,5 + x35,4 + x36,5 + x36,4 + x37,5 + x37,4 + x38,5 + x38,4 + x39,5 + x39,4 + x48,5 + x48,4 + x49,5 + x49,4 + x50,5 + x50,4 + x51,5 + x51,4 + x52,5 + x52,4 + x53,5 + x53,4 - M1 <= 0
x2,6 + x11,6 + x14,6 + x17,6 + x20,6 + x23,6 + x26,6 + x27,6 + x28,6 + x29,6 + x30,6 + x31,6 + x40,6 + x41,6 + x42,6 + x43,6 + x44,6 + x45,6 + x46,6 + x47,6 + x54,6 + x55,6 + x56,6 + x57,6 + x58,6 + x59,6 + x60,6 + x61,6 + x62,6 + x63,6 + x64,6 + x65,6 - M2 <= 0
x32,6 + x32,5 + x33,6 + x33,5 + x34,6 + x34,5 + x35,6 + x35,5 + x36,6 + x36,5 + x37,6 + x37,5 + x38,6 + x38,5 + x39,6 + x39,5 + x48,6 + x48,5 + x49,6 + x49,5 + x50,6 + x50,5 + x51,6 + x51,5 + x52,6 + x52,5 + x53,6 + x53,5 - M1 <= 0
x0,7 + x1,7 + x2,7 + x9,7 + x10,7 + x11,7 + x12,7 + x13,7 + x14,7 + x15,7 + x16,7 + x17,7 + x18,7 + x19,7 + x20,7 + x21,7 + x22,7 + x23,7 + x26,7 + x27,7 + x28,7 + x29,7 + x30,7 + x31,7 + x40,7 + x41,7 + x42,7 + x43,7 + x44,7 + x45,7 + x46,7 + x47,7 + x54,7 + x55,7 + x56,7 + x57,7 + x62,7 + x63,7 + x64,7 + x65,7 - M2 <= 0
x24,7 + x24,6 + x25,7 + x25,6 + x32,7 + x32,6 + x33,7 + x33,6 + x34,7 + x34,6 + x35,7 + x35,6 + x36,7 + x36,6 + x37,7 + x37,6 + x38,7 + x38,6 + x39,7 + x39,6 + x48,7 + x48,6 + x49,7 + x49,6 + x50,7 + x50,6 + x51,7 + x51,6 + x52,7 + x52,6 + x53,7 + x53,6 - M1 <= 0
x0,8 + x1,8 + x2,8 + x9,8 + x10,8 + x11,8 + x12,8 + x13,8 + x14,8 + x15,8 + x16,8 + x17,8 + x18,8 + x19,8 + x20,8 + x21,8 + x22,8 + x23,8 + x26,8 + x27,8 + x28,8 + x29,8 + x30,8 + x31,8 + x44,8 + x45,8 + x46,8 + x47,8 + x54,8 + x55,8 + x56,8 + x57,8 + x62,8 + x63,8 + x64,8 + x65,8 - M2 <= 0
x24,8 + x24,7 + x25,8 + x25,7 + x32,8 + x32,7 + x33,8 + x33,7 + x34,8 + x34,7 + x35,8 + x35,7 + x36,8 + x36,7 + x37,8 + x37,7 + x38,8 + x38,7 + x39,8 + x39,7 + x48,8 + x48,7 + x49,8 + x49,7 + x50,8 + x50,7 + x51,8 + x51,7 + x52,8 + x52,7 + x53,8 + x53,7 - M1 <= 0
x0,9 + x1,9 + x2,9 + x5,9 + x8,9 + x9,9 + x10,9 + x11,9 + x12,9 + x13,9 + x14,9 + x15,9 + x16,9 + x17,9 + x18,9 + x19,9 + x20,9 + x21,9 + x22,9 + x23,9 + x26,9 + x27,9 + x28,9 + x29,9 + x30,9 + x31,9 + x44,9 + x45,9 + x46,9 + x47,9 + x54,9 + x55,9 + x56,9 + x57,9 + x62,9 + x63,9 + x64,9 + x65,9 - M2 <= 0
x24,9 + x24,8 + x25,9 + x25,8 + x32,9 + x32,8 + x33,9 + x33,8 + x34,9 + x34,8 + x35,9 + x35,8 + x36,9 + x36,8 + x37,9 + x37,8 + x38,9 + x38,8 + x39,9 + x39,8 + x48,9 + x48,8 + x49,9 + x49,8 + x50,9 + x50,8 + x51,9 + x51,8 + x52,9 + x52,8 + x53,9 + x53,8 - M1 <= 0
x0,10 + x1,10 + x2,10 + x3,10 + x4,10 + x5,10 + x6,10 + x7,10 + x8,10 + x9,10 + x10,10 + x11,10 + x12,10 + x13,10 + x14,10 + x15,10 + x16,10 + x17,10 + x18,10 + x19,10 + x20,10 + x21,10 + x22,10 + x23,10 + x26,10 + x27,10 + x28,10 + x29,10 + x30,10 + x31,10 + x44,10 + x45,10 + x46,10 + x47,10 + x54,10 + x55,10 + x56,10 + x57,10 - M2 <= 0
x24,10 + x24,9 + x25,10 + x25,9 + x48,10 + x48,9 + x49,10 + x49,9 + x50,10 + x50,9 + x51,10 + x51,9 + x52,10 + x52,9 + x53,10 + x53,9 - M1 <= 0
x0,11 + x1,11 + x2,11 + x3,11 + x4,11 + x5,11 + x6,11 + x7,11 + x8,11 + x9,11 + x10,11 + x11,11 + x12,11 + x13,11 + x14,11 + x15,11 + x16,11 + x17,11 + x18,11 + x19,11 + x20,11 + x21,11 + x22,11 + x23,11 + x26,11 + x27,11 + x44,11 + x45,11 + x46,11 + x47,11 - M2 <= 0
x24,11 + x24,10 + x25,11 + x25,10 + x48,11 + x48,10 + x49,11 + x49,10 + x50,11 + x50,10 + x51,11 + x51,10 + x52,11 + x52,10 + x53,11 + x53,10 - M1 <= 0
x0,12 + x1,12 + x2,12 + x3,12 + x4,12 + x5,12 + x6,12 + x7,12 + x8,12 + x9,12 + x10,12 + x11,12 + x12,12 + x13,12 + x14,12 + x15,12 + x16,12 + x17,12 + x18,12 + x19,12 + x20,12 + x21,12 + x22,12 + x23,12 + x44,12 + x45,12 + x46,12 + x47,12 - M2 <= 0
x24,12 + x24,11 + x25,12 + x25,11 + x48,12 + x48,11 + x49,12 + x49,11 + x50,12 + x50,11 + x51,12 + x51,11 + x52,12 + x52,11 + x53,12 + x53,11 - M1 <= 0
x0,13 + x1,13 + x2,13 + x3,13 + x4,13 + x5,13 + x6,13 + x7,13 + x8,13 + x9,13 + x10,13 + x11,13 + x12,13 + x13,13 + x14,13 + x15,13 + x16,13 + x17,13 + x18,13 + x19,13 + x20,13 + x21,13 + x22,13 + x23,13 + x44,13 + x45,13 + x46,13 + x47,13 - M2 <= 0
x24,13 + x24,12 + x25,13 + x25,12 - M1 <= 0
x0,14 + x1,14 + x2,14 + x3,14 + x4,14 + x5,14 + x6,14 + x7,14 + x8,14 + x9,14 + x10,14 + x11,14 + x12,14 + x13,14 + x14,14 + x15,14 + x16,14 + x17,14 + x18,14 + x19,14 + x20,14 + x21,14 + x22,14 + x23,14 - M2 <= 0
x0,15 + x1,15 + x3,15 + x4,15 + x6,15 + x7,15 + x9,15 + x10,15 + x12,15 + x13,15 + x15,15 + x16,15 + x18,15 + x19,15 + x21,15 + x22,15 - M2 <= 0
6 x2,6 + 7 x2,7 + 8 x2,8 + 9 x2,9 + 10 x2,10 + 11 x2,11 + 12 x2,12 + 13 x2,13 + 14 x2,14 - 7 x0,7 - 8 x0,8 - 9 x0,9 - 10 x0,10 - 11 x0,11 - 12 x0,12 - 13 x0,13 - 14 x0,14 - 15 x0,15 <= -1
6 x2,6 + 7 x2,7 + 8 x2,8 + 9 x2,9 + 10 x2,10 + 11 x2,11 + 12 x2,12 + 13 x2,13 + 14 x2,14 - 7 x1,7 - 8 x1,8 - 9 x1,9 - 10 x1,10 - 11 x1,11 - 12 x1,12 - 13 x1,13 - 14 x1,14 - 15 x1,15 <= -1
9 x5,9 + 10 x5,10 + 11 x5,11 + 12 x5,12 + 13 x5,13 + 14 x5,14 - 10 x3,10 - 11 x3,11 - 12 x3,12 - 13 x3,13 - 14 x3,14 - 15 x3,15 <= -1
9 x5,9 + 10 x5,10 + 11 x5,11 + 12 x5,12 + 13 x5,13 + 14 x5,14 - 10 x4,10 - 11 x4,11 - 12 x4,12 - 13 x4,13 - 14 x4,14 - 15 x4,15 <= -1
9 x8,9 + 10 x8,10 + 11 x8,11 + 12 x8,12 + 13 x8,13 + 14 x8,14 - 10 x6,10 - 11 x6,11 - 12 x6,12 - 13 x6,13 - 14 x6,14 - 15 x6,15 <= -1
9 x8,9 + 10 x8,10 + 11 x8,11 + 12 x8,12 + 13 x8,13 + 14 x8,14 - 10 x7,10 - 11 x7,11 - 12 x7,12 - 13 x7,13 - 14 x7,14 - 15 x7,15 <= -1
6 x11,6 + 7 x11,7 + 8 x11,8 + 9 x11,9 + 10 x11,10 + 11 x11,11 + 12 x11,12 + 13 x11,13 + 14 x11,14 - 7 x9,7 - 8 x9,8 - 9 x9,9 - 10 x9,10 - 11 x9,11 - 12 x9,12 - 13 x9,13 - 14 x9,14 - 15 x9,15 <= -1
6 x11,6 + 7 x11,7 + 8 x11,8 + 9 x11,9 + 10 x11,10 + 11 x11,11 + 12 x11,12 + 13 x11,13 + 14 x11,14 - 7 x10,7 - 8 x10,8 - 9 x10,9 - 10 x10,10 - 11 x10,11 - 12 x10,12 - 13 x10,13 - 14 x10,14 - 15 x10,15 <= -1
6 x14,6 + 7 x14,7 + 8 x14,8 + 9 x14,9 + 10 x14,10 + 11 x14,11 + 12 x14,12 + 13 x14,13 + 14 x14,14 - 7 x12,7 - 8 x12,8 - 9 x12,9 - 10 x12,10 - 11 x12,11 - 12 x12,12 - 13 x12,13 - 14 x12,14 - 15 x12,15 <= -1
6 x14,6 + 7 x14,7 + 8 x14,8 + 9 x14,9 + 10 x14,10 + 11 x14,11 + 12 x14,12 + 13 x14,13 + 14 x14,14 - 7 x13,7 - 8 x13,8 - 9 x13,9 - 10 x13,10 - 11 x13,11 - 12 x13,12 - 13 x13,13 - 14 x13,14 - 15 x13,15 <= -1
6 x17,6 + 7 x17,7 + 8 x17,8 + 9 x17,9 + 10 x17,10 + 11 x17,11 + 12 x17,12 + 13 x17,13 + 14 x17,14 - 7 x15,7 - 8 x15,8 - 9 x15,9 - 10 x15,10 - 11 x15,11 - 12 x15,12 - 13 x15,13 - 14 x15,14 - 15 x15,15 <= -1
6 x17,6 + 7 x17,7 + 8 x17,8 + 9 x17,9 + 10 x17,10 + 11 x17,11 + 12 x17,12 + 13 x17,13 + 14 x17,14 - 7 x16,7 - 8 x16,8 - 9 x16,9 - 10 x16,10 - 11 x16,11 - 12 x16,12 - 13 x16,13 - 14 x16,14 - 15 x16,15 <= -1
6 x20,6 + 7 x20,7 + 8 x20,8 + 9 x20,9 + 10 x20,10 + 11 x20,11 + 12 x20,12 + 13 x20,13 + 14 x20,14 - 7 x18,7 - 8 x18,8 - 9 x18,9 - 10 x18,10 - 11 x18,11 - 12 x18,12 - 13 x18,13 - 14 x18,14 - 15 x18,15 <= -1
6 x20,6 + 7 x20,7 + 8 x20,8 + 9 x20,9 + 10 x20,10 + 11 x20,11 + 12 x20,12 + 13 x20,13 + 14 x20,14 - 7 x19,7 - 8 x19,8 - 9 x19,9 - 10 x19,10 - 11 x19,11 - 12 x19,12 - 13 x19,13 - 14 x19,14 - 15 x19,15 <= -1
6 x23,6 + 7 x23,7 + 8 x23,8 + 9 x23,9 + 10 x23,10 + 11 x23,11 + 12 x23,12 + 13 x23,13 + 14 x23,14 - 7 x21,7 - 8 x21,8 - 9 x21,9 - 10 x21,10 - 11 x21,11 - 12 x21,12 - 13 x21,13 - 14 x21,14 - 15 x21,15 <= -1
6 x23,6 + 7 x23,7 + 8 x23,8 + 9 x23,9 + 10 x23,10 + 11 x23,11 + 12 x23,12 + 13 x23,13 + 14 x23,14 - 7 x22,7 - 8 x22,8 - 9 x22,9 - 10 x22,10 - 11 x22,11 - 12 x22,12 - 13 x22,13 - 14 x22,14 - 15 x22,15 <= -1
7 x24,7 + 8 x24,8 + 9 x24,9 + 10 x24,10 + 11 x24,11 + 12 x24,12 - 9 x5,9 - 10 x5,10 - 11 x5,11 - 12 x5,12 - 13 x5,13 - 14 x5,14 <= -2
7 x25,7 + 8 x25,8 + 9 x25,9 + 10 x25,10 + 11 x25,11 + 12 x25,12 - 9 x8,9 - 10 x8,10 - 11 x8,11 - 12 x8,12 - 13 x8,13 - 14 x8,14 <= -2
6 x26,6 + 7 x26,7 + 8 x26,8 + 9 x26,9 + 10 x26,10 + 11 x26,11 - 7 x24,7 - 8 x24,8 - 9 x24,9 - 10 x24,10 - 11 x24,11 - 12 x24,12 <= -1
6 x26,6 + 7 x26,7 + 8 x26,8 + 9 x26,9 + 10 x26,10 + 11 x26,11 - 7 x25,7 - 8 x25,8 - 9 x25,9 - 10 x25,10 - 11 x25,11 - 12 x25,12 <= -1
6 x27,6 + 7 x27,7 + 8 x27,8 + 9 x27,9 + 10 x27,10 + 11 x27,11 - 7 x24,7 - 8 x24,8 - 9 x24,9 - 10 x24,10 - 11 x24,11 - 12 x24,12 <= -1
6 x27,6 + 7 x27,7 + 8 x27,8 + 9 x27,9 + 10 x27,10 + 11 x27,11 - 7 x25,7 - 8 x25,8 - 9 x25,9 - 10 x25,10 - 11 x25,11 - 12 x25,12 <= -1
5 x28,5 + 6 x28,6 + 7 x28,7 + 8 x28,8 + 9 x28,9 + 10 x28,10 - 6 x2,6 - 7 x2,7 - 8 x2,8 - 9 x2,9 - 10 x2,10 - 11 x2,11 - 12 x2,12 - 13 x2,13 - 14 x2,14 <= -1
5 x28,5 + 6 x28,6 + 7 x28,7 + 8 x28,8 + 9 x28,9 + 10 x28,10 - 6 x26,6 - 7 x26,7 - 8 x26,8 - 9 x26,9 - 10 x26,10 - 11 x26,11 <= -1
5 x29,5 + 6 x29,6 + 7 x29,7 + 8 x29,8 + 9 x29,9 + 10 x29,10 - 6 x2,6 - 7 x2,7 - 8 x2,8 - 9 x2,9 - 10 x2,10 - 11 x2,11 - 12 x2,12 - 13 x2,13 - 14 x2,14 <= -1
5 x29,5 + 6 x29,6 + 7 x29,7 + 8 x29,8 + 9 x29,9 + 10 x29,10 - 6 x26,6 - 7 x26,7 - 8 x26,8 - 9 x26,9 - 10 x26,10 - 11 x26,11 <= -1
5 x30,5 + 6 x30,6 + 7 x30,7 + 8 x30,8 + 9 x30,9 + 10 x30,10 - 6 x11,6 - 7 x11,7 - 8 x11,8 - 9 x11,9 - 10 x11,10 - 11 x11,11 - 12 x11,12 - 13 x11,13 - 14 x11,14 <= -1
5 x30,5 + 6 x30,6 + 7 x30,7 + 8 x30,8 + 9 x30,9 + 10 x30,10 - 6 x27,6 - 7 x27,7 - 8 x27,8 - 9 x27,9 - 10 x27,10 - 11 x27,11 <= -1
5 x31,5 + 6 x31,6 + 7 x31,7 + 8 x31,8 + 9 x31,9 + 10 x31,10 - 6 x11,6 - 7 x11,7 - 8 x11,8 - 9 x11,9 - 10 x11,10 - 11 x11,11 - 12 x11,12 - 13 x11,13 - 14 x11,14 <= -1
5 x31,5 + 6 x31,6 + 7 x31,7 + 8 x31,8 + 9 x31,9 + 10 x31,10 - 6 x27,6 - 7 x27,7 - 8 x27,8 - 9 x27,9 - 10 x27,10 - 11 x27,11 <= -1
3 x32,3 + 4 x32,4 + 5 x32,5 + 6 x32,6 + 7 x32,7 + 8 x32,8 - 5 x28,5 - 6 x28,6 - 7 x28,7 - 8 x28,8 - 9 x28,9 - 10 x28,10 <= -2
3 x33,3 + 4 x33,4 + 5 x33,5 + 6 x33,6 + 7 x33,7 + 8 x33,8 - 5 x28,5 - 6 x28,6 - 7 x28,7 - 8 x28,8 - 9 x28,9 - 10 x28,10 <= -2
3 x34,3 + 4 x34,4 + 5 x34,5 + 6 x34,6 + 7 x34,7 + 8 x34,8 - 5 x29,5 - 6 x29,6 - 7 x29,7 - 8 x29,8 - 9 x29,9 - 10 x29,10 <= -2
3 x35,3 + 4 x35,4 + 5 x35,5 + 6 x35,6 + 7 x35,7 + 8 x35,8 - 5 x29,5 - 6 x29,6 - 7 x29,7 - 8 x29,8 - 9 x29,9 - 10 x29,10 <= -2
3 x36,3 + 4 x36,4 + 5 x36,5 + 6 x36,6 + 7 x36,7 + 8 x36,8 - 5 x30,5 - 6 x30,6 - 7 x30,7 - 8 x30,8 - 9 x30,9 - 10 x30,10 <= -2
3 x37,3 + 4 x37,4 + 5 x37,5 + 6 x37,6 + 7 x37,7 + 8 x37,8 - 5 x30,5 - 6 x30,6 - 7 x30,7 - 8 x30,8 - 9 x30,9 - 10 x30,10 <= -2
3 x38,3 + 4 x38,4 + 5 x38,5 + 6 x38,6 + 7 x38,7 + 8 x38,8 - 5 x31,5 - 6 x31,6 - 7 x31,7 - 8 x31,8 - 9 x31,9 - 10 x31,10 <= -2
3 x39,3 + 4 x39,4 + 5 x39,5 + 6 x39,6 + 7 x39,7 + 8 x39,8 - 5 x31,5 - 6 x31,6 - 7 x31,7 - 8 x31,8 - 9 x31,9 - 10 x31,10 <= -2
2 x40,2 + 3 x40,3 + 4 x40,4 + 5 x40,5 + 6 x40,6 + 7 x40,7 - 3 x32,3 - 4 x32,4 - 5 x32,5 - 6 x32,6 - 7 x32,7 - 8 x32,8 <= -1
2 x40,2 + 3 x40,3 + 4 x40,4 + 5 x40,5 + 6 x40,6 + 7 x40,7 - 3 x38,3 - 4 x38,4 - 5 x38,5 - 6 x38,6 - 7 x38,7 - 8 x38,8 <= -1
2 x41,2 + 3 x41,3 + 4 x41,4 + 5 x41,5 + 6 x41,6 + 7 x41,7 - 3 x34,3 - 4 x34,4 - 5 x34,5 - 6 x34,6 - 7 x34,7 - 8 x34,8 <= -1
2 x41,2 + 3 x41,3 + 4 x41,4 + 5 x41,5 + 6 x41,6 + 7 x41,7 - 3 x36,3 - 4 x36,4 - 5 x36,5 - 6 x36,6 - 7 x36,7 - 8 x36,8 <= -1
2 x42,2 + 3 x42,3 + 4 x42,4 + 5 x42,5 + 6 x42,6 + 7 x42,7 - 3 x35,3 - 4 x35,4 - 5 x35,5 - 6 x35,6 - 7 x35,7 - 8 x35,8 <= -1
2 x42,2 + 3 x42,3 + 4 x42,4 + 5 x42,5 + 6 x42,6 + 7 x42,7 - 3 x37,3 - 4 x37,4 - 5 x37,5 - 6 x37,6 - 7 x37,7 - 8 x37,8 <= -1
2 x43,2 + 3 x43,3 + 4 x43,4 + 5 x43,5 + 6 x43,6 + 7 x43,7 - 3 x33,3 - 4 x33,4 - 5 x33,5 - 6 x33,6 - 7 x33,7 - 8 x33,8 <= -1
2 x43,2 + 3 x43,3 + 4 x43,4 + 5 x43,5 + 6 x43,6 + 7 x43,7 - 3 x39,3 - 4 x39,4 - 5 x39,5 - 6 x39,6 - 7 x39,7 - 8 x39,8 <= -1
5 x44,5 + 6 x44,6 + 7 x44,7 + 8 x44,8 + 9 x44,9 + 10 x44,10 + 11 x44,11 + 12 x44,12 + 13 x44,13 - 6 x14,6 - 7 x14,7 - 8 x14,8 - 9 x14,9 - 10 x14,10 - 11 x14,11 - 12 x14,12 - 13 x14,13 - 14 x14,14 <= -1
5 x44,5 + 6 x44,6 + 7 x44,7 + 8 x44,8 + 9 x44,9 + 10 x44,10 + 11 x44,11 + 12 x44,12 + 13 x44,13 - 6 x23,6 - 7 x23,7 - 8 x23,8 - 9 x23,9 - 10 x23,10 - 11 x23,11 - 12 x23,12 - 13 x23,13 - 14 x23,14 <= -1
5 x45,5 + 6 x45,6 + 7 x45,7 + 8 x45,8 + 9 x45,9 + 10 x45,10 + 11 x45,11 + 12 x45,12 + 13 x45,13 - 6 x17,6 - 7 x17,7 - 8 x17,8 - 9 x17,9 - 10 x17,10 - 11 x17,11 - 12 x17,12 - 13 x17,13 - 14 x17,14 <= -1
5 x45,5 + 6 x45,6 + 7 x45,7 + 8 x45,8 + 9 x45,9 + 10 x45,10 + 11 x45,11 + 12 x45,12 + 13 x45,13 - 6 x20,6 - 7 x20,7 - 8 x20,8 - 9 x20,9 - 10 x20,10 - 11 x20,11 - 12 x20,12 - 13 x20,13 - 14 x20,14 <= -1
5 x46,5 + 6 x46,6 + 7 x46,7 + 8 x46,8 + 9 x46,9 + 10 x46,10 + 11 x46,11 + 12 x46,12 + 13 x46,13 - 6 x17,6 - 7 x17,7 - 8 x17,8 - 9 x17,9 - 10 x17,10 - 11 x17,11 - 12 x17,12 - 13 x17,13 - 14 x17,14 <= -1
5 x46,5 + 6 x46,6 + 7 x46,7 + 8 x46,8 + 9 x46,9 + 10 x46,10 + 11 x46,11 + 12 x46,12 + 13 x46,13 - 6 x20,6 - 7 x20,7 - 8 x20,8 - 9 x20,9 - 10 x20,10 - 11 x20,11 - 12 x20,12 - 13 x20,13 - 14 x20,14 <= -1
5 x47,5 + 6 x47,6 + 7 x47,7 + 8 x47,8 + 9 x47,9 + 10 x47,10 + 11 x47,11 + 12 x47,12 + 13 x47,13 - 6 x14,6 - 7 x14,7 - 8 x14,8 - 9 x14,9 - 10 x14,10 - 11 x14,11 - 12 x14,12 - 13 x14,13 - 14 x14,14 <= -1
5 x47,5 + 6 x47,6 + 7 x47,7 + 8 x47,8 + 9 x47,9 + 10 x47,10 + 11 x47,11 + 12 x47,12 + 13 x47,13 - 6 x23,6 - 7 x23,7 - 8 x23,8 - 9 x23,9 - 10 x23,10 - 11 x23,11 - 12 x23,12 - 13 x23,13 - 14 x23,14 <= -1
3 x48,3 + 4 x48,4 + 5 x48,5 + 6 x48,6 + 7 x48,7 + 8 x48,8 + 9 x48,9 + 10 x48,10 + 11 x48,11 - 5 x44,5 - 6 x44,6 - 7 x44,7 - 8 x44,8 - 9 x44,9 - 10 x44,10 - 11 x44,11 - 12 x44,12 - 13 x44,13 <= -2
3 x49,3 + 4 x49,4 + 5 x49,5 + 6 x49,6 + 7 x49,7 + 8 x49,8 + 9 x49,9 + 10 x49,10 + 11 x49,11 - 5 x44,5 - 6 x44,6 - 7 x44,7 - 8 x44,8 - 9 x44,9 - 10 x44,10 - 11 x44,11 - 12 x44,12 - 13 x44,13 <= -2
3 x50,3 + 4 x50,4 + 5 x50,5 + 6 x50,6 + 7 x50,7 + 8 x50,8 + 9 x50,9 + 10 x50,10 + 11 x50,11 - 5 x45,5 - 6 x45,6 - 7 x45,7 - 8 x45,8 - 9 x45,9 - 10 x45,10 - 11 x45,11 - 12 x45,12 - 13 x45,13 <= -2
3 x51,3 + 4 x51,4 + 5 x51,5 + 6 x51,6 + 7 x51,7 + 8 x51,8 + 9 x51,9 + 10 x51,10 + 11 x51,11 - 5 x45,5 - 6 x45,6 - 7 x45,7 - 8 x45,8 - 9 x45,9 - 10 x45,10 - 11 x45,11 - 12 x45,12 - 13 x45,13 <= -2
3 x52,3 + 4 x52,4 + 5 x52,5 + 6 x52,6 + 7 x52,7 + 8 x52,8 + 9 x52,9 + 10 x52,10 + 11 x52,11 - 5 x46,5 - 6 x46,6 - 7 x46,7 - 8 x46,8 - 9 x46,9 - 10 x46,10 - 11 x46,11 - 12 x46,12 - 13 x46,13 <= -2
3 x53,3 + 4 x53,4 + 5 x53,5 + 6 x53,6 + 7 x53,7 + 8 x53,8 + 9 x53,9 + 10 x53,10 + 11 x53,11 - 5 x47,5 - 6 x47,6 - 7 x47,7 - 8 x47,8 - 9 x47,9 - 10 x47,10 - 11 x47,11 - 12 x47,12 - 13 x47,13 <= -2
2 x54,2 + 3 x54,3 + 4 x54,4 + 5 x54,5 + 6 x54,6 + 7 x54,7 + 8 x54,8 + 9 x54,9 + 10 x54,10 - 3 x48,3 - 4 x48,4 - 5 x48,5 - 6 x48,6 - 7 x48,7 - 8 x48,8 - 9 x48,9 - 10 x48,10 - 11 x48,11 <= -1
2 x54,2 + 3 x54,3 + 4 x54,4 + 5 x54,5 + 6 x54,6 + 7 x54,7 + 8 x54,8 + 9 x54,9 + 10 x54,10 - 3 x50,3 - 4 x50,4 - 5 x50,5 - 6 x50,6 - 7 x50,7 - 8 x50,8 - 9 x50,9 - 10 x50,10 - 11 x50,11 <= -1
2 x55,2 + 3 x55,3 + 4 x55,4 + 5 x55,5 + 6 x55,6 + 7 x55,7 + 8 x55,8 + 9 x55,9 + 10 x55,10 - 3 x49,3 - 4 x49,4 - 5 x49,5 - 6 x49,6 - 7 x49,7 - 8 x49,8 - 9 x49,9 - 10 x49,10 - 11 x49,11 <= -1
2 x55,2 + 3 x55,3 + 4 x55,4 + 5 x55,5 + 6 x55,6 + 7 x55,7 + 8 x55,8 + 9 x55,9 + 10 x55,10 - 3 x51,3 - 4 x51,4 - 5 x51,5 - 6 x51,6 - 7 x51,7 - 8 x51,8 - 9 x51,9 - 10 x51,10 - 11 x51,11 <= -1
2 x56,2 + 3 x56,3 + 4 x56,4 + 5 x56,5 + 6 x56,6 + 7 x56,7 + 8 x56,8 + 9 x56,9 + 10 x56,10 - 3 x52,3 - 4 x52,4 - 5 x52,5 - 6 x52,6 - 7 x52,7 - 8 x52,8 - 9 x52,9 - 10 x52,10 - 11 x52,11 <= -1
2 x56,2 + 3 x56,3 + 4 x56,4 + 5 x56,5 + 6 x56,6 + 7 x56,7 + 8 x56,8 + 9 x56,9 + 10 x56,10 - 3 x53,3 - 4 x53,4 - 5 x53,5 - 6 x53,6 - 7 x53,7 - 8 x53,8 - 9 x53,9 - 10 x53,10 - 11 x53,11 <= -1
2 x57,2 + 3 x57,3 + 4 x57,4 + 5 x57,5 + 6 x57,6 + 7 x57,7 + 8 x57,8 + 9 x57,9 + 10 x57,10 - 3 x52,3 - 4 x52,4 - 5 x52,5 - 6 x52,6 - 7 x52,7 - 8 x52,8 - 9 x52,9 - 10 x52,10 - 11 x52,11 <= -1
2 x57,2 + 3 x57,3 + 4 x57,4 + 5 x57,5 + 6 x57,6 + 7 x57,7 + 8 x57,8 + 9 x57,9 + 10 x57,10 - 3 x53,3 - 4 x53,4 - 5 x53,5 - 6 x53,6 - 7 x53,7 - 8 x53,8 - 9 x53,9 - 10 x53,10 - 11 x53,11 <= -1
1 x58,1 + 2 x58,2 + 3 x58,3 + 4 x58,4 + 5 x58,5 + 6 x58,6 - 2 x40,2 - 3 x40,3 - 4 x40,4 - 5 x40,5 - 6 x40,6 - 7 x40,7 <= -1
1 x59,1 + 2 x59,2 + 3 x59,3 + 4 x59,4 + 5 x59,5 + 6 x59,6 - 2 x41,2 - 3 x41,3 - 4 x41,4 - 5 x41,5 - 6 x41,6 - 7 x41,7 <= -1
1 x60,1 + 2 x60,2 + 3 x60,3 + 4 x60,4 + 5 x60,5 + 6 x60,6 - 2 x42,2 - 3 x42,3 - 4 x42,4 - 5 x42,5 - 6 x42,6 - 7 x42,7 <= -1
1 x61,1 + 2 x61,2 + 3 x61,3 + 4 x61,4 + 5 x61,5 + 6 x61,6 - 2 x43,2 - 3 x43,3 - 4 x43,4 - 5 x43,5 - 6 x43,6 - 7 x43,7 <= -1
1 x62,1 + 2 x62,2 + 3 x62,3 + 4 x62,4 + 5 x62,5 + 6 x62,6 + 7 x62,7 + 8 x62,8 + 9 x62,9 - 2 x54,2 - 3 x54,3 - 4 x54,4 - 5 x54,5 - 6 x54,6 - 7 x54,7 - 8 x54,8 - 9 x54,9 - 10 x54,10 <= -1
1 x63,1 + 2 x63,2 + 3 x63,3 + 4 x63,4 + 5 x63,5 + 6 x63,6 + 7 x63,7 + 8 x63,8 + 9 x63,9 - 2 x55,2 - 3 x55,3 - 4 x55,4 - 5 x55,5 - 6 x55,6 - 7 x55,7 - 8 x55,8 - 9 x55,9 - 10 x55,10 <= -1
1 x64,1 + 2 x64,2 + 3 x64,3 + 4 x64,4 + 5 x64,5 + 6 x64,6 + 7 x64,7 + 8 x64,8 + 9 x64,9 - 2 x56,2 - 3 x56,3 - 4 x56,4 - 5 x56,5 - 6 x56,6 - 7 x56,7 - 8 x56,8 - 9 x56,9 - 10 x56,10 <= -1
1 x65,1 + 2 x65,2 + 3 x65,3 + 4 x65,4 + 5 x65,5 + 6 x65,6 + 7 x65,7 + 8 x65,8 + 9 x65,9 - 2 x57,2 - 3 x57,3 - 4 x57,4 - 5 x57,5 - 6 x57,6 - 7 x57,7 - 8 x57,8 - 9 x57,9 - 10 x57,10 <= -1
Bounds
0 <= x0,7 <= 1
0 <= x0,8 <= 1
0 <= x0,9 <= 1
0 <= x0,10 <= 1
0 <= x0,11 <= 1
0 <= x0,12 <= 1
0 <= x0,13 <= 1
0 <= x0,14 <= 1
0 <= x0,15 <= 1
0 <= x1,7 <= 1
0 <= x1,8 <= 1
0 <= x1,9 <= 1
0 <= x1,10 <= 1
0 <= x1,11 <= 1
0 <= x1,12 <= 1
0 <= x1,13 <= 1
0 <= x1,14 <= 1
0 <= x1,15 <= 1
0 <= x2,6 <= 1
0 <= x2,7 <= 1
0 <= x2,8 <= 1
0 <= x2,9 <= 1
0 <= x2,10 <= 1
0 <= x2,11 <= 1
0 <= x2,12 <= 1
0 <= x2,13 <= 1
0 <= x2,14 <= 1
0 <= x3,10 <= 1
0 <= x3,11 <= 1
0 <= x3,12 <= 1
0 <= x3,13 <= 1
0 <= x3,14 <= 1
0 <= x3,15 <= 1
0 <= x4,10 <= 1
0 <= x4,11 <= 1
0 <= x4,12 <= 1
0 <= x4,13 <= 1
0 <= x4,14 <= 1
0 <= x4,15 <= 1
0 <= x5,9 <= 1
0 <= x5,10 <= 1
0 <= x5,11 <= 1
0 <= x5,12 <= 1
0 <= x5,13 <= 1
0 <= x5,14 <= 1
0 <= x6,10 <= 1
0 <= x6,11 <= 1
0 <= x6,12 <= 1
0 <= x6,13 <= 1
0 <= x6,14 <= 1
0 <= x6,15 <= 1
0 <= x7,10 <= 1
0 <= x7,11 <= 1
0 <= x7,12 <= 1
0 <= x7,13 <= 1
0 <= x7,14 <= 1
0 <= x7,15 <= 1
0 <= x8,9 <= 1
0 <= x8,10 <= 1
0 <= x8,11 <= 1
0 <= x8,12 <= 1
0 <= x8,13 <= 1
0 <= x8,14 <= 1
0 <= x9,7 <= 1
0 <= x9,8 <= 1
0 <= x9,9 <= 1
0 <= x9,10 <= 1
0 <= x9,11 <= 1
0 <= x9,12 <= 1
0 <= x9,13 <= 1
0 <= x9,14 <= 1
0 <= x9,15 <= 1
0 <= x10,7 <= 1
0 <= x10,8 <= 1
0 <= x10,9 <= 1
0 <= x10,10 <= 1
0 <= x10,11 <= 1
0 <= x10,12 <= 1
0 <= x10,13 <= 1
0 <= x10,14 <= 1
0 <= x10,15 <= 1
0 <= x11,6 <= 1
0 <= x11,7 <= 1
0 <= x11,8 <= 1
0 <= x11,9 <= 1
0 <= x11,10 <= 1
0 <= x11,11 <= 1
0 <= x11,12 <= 1
0 <= x11,13 <= 1
0 <= x11,14 <= 1
0 <= x12,7 <= 1
0 <= x12,8 <= 1
0 <= x12,9 <= 1
0 <= x12,10 <= 1
0 <= x12,11 <= 1
0 <= x12,12 <= 1
0 <= x12,13 <= 1
0 <= x12,14 <= 1
0 <= x12,15 <= 1
0 <= x13,7 <= 1
0 <= x13,8 <= 1
0 <= x13,9 <= 1
0 <= x13,10 <= 1
0 <= x13,11 <= 1
0 <= x13,12 <= 1
0 <= x13,13 <= 1
0 <= x13,14 <= 1
0 <= x13,15 <= 1
0 <= x14,6 <= 1
0 <= x14,7 <= 1
0 <= x14,8 <= 1
0 <= x14,9 <= 1
0 <= x14,10 <= 1
0 <= x14,11 <= 1
0 <= x14,12 <= 1
0 <= x14,13 <= 1
0 <= x14,14 <= 1
0 <= x15,7 <= 1
0 <= x15,8 <= 1
0 <= x15,9 <= 1
0 <= x15,10 <= 1
0 <= x15,11 <= 1
0 <= x15,12 <= 1
0 <= x15,13 <= 1
0 <= x15,14 <= 1
0 <= x15,15 <= 1
0 <= x16,7 <= 1
0 <= x16,8 <= 1
0 <= x16,9 <= 1
0 <= x16,10 <= 1
0 <= x16,11 <= 1
0 <= x16,12 <= 1
0 <= x16,13 <= 1
0 <= x16,14 <= 1
0 <= x16,15 <= 1
0 <= x17,6 <= 1
0 <= x17,7 <= 1
0 <= x17,8 <= 1
0 <= x17,9 <= 1
0 <= x17,10 <= 1
0 <= x17,11 <= 1
0 <= x17,12 <= 1
0 <= x17,13 <= 1
0 <= x17,14 <= 1
0 <= x18,7 <= 1
0 <= x18,8 <= 1
0 <= x18,9 <= 1
0 <= x18,10 <= 1
0 <= x18,11 <= 1
0 <= x18,12 <= 1
0 <= x18,13 <= 1
0 <= x18,14 <= 1
0 <= x18,15 <= 1
0 <= x19,7 <= 1
0 <= x19,8 <= 1
0 <= x19,9 <= 1
0 <= x19,10 <= 1
0 <= x19,11 <= 1
0 <= x19,12 <= 1
0 <= x19,13 <= 1
0 <= x19,14 <= 1
0 <= x19,15 <= 1
0 <= x20,6 <= 1
0 <= x20,7 <= 1
0 <= x20,8 <= 1
0 <= x20,9 <= 1
0 <= x20,10 <= 1
0 <= x20,11 <= 1
0 <= x20,12 <= 1
0 <= x20,13 <= 1
0 <= x20,14 <= 1
0 <= x21,7 <= 1
0 <= x21,8 <= 1
0 <= x21,9 <= 1
0 <= x21,10 <= 1
0 <= x21,11 <= 1
0 <= x21,12 <= 1
0 <= x21,13 <= 1
0 <= x21,14 <= 1
0 <= x21,15 <= 1
0 <= x22,7 <= 1
0 <= x22,8 <= 1
0 <= x22,9 <= 1
0 <= x22,10 <= 1
0 <= x22,11 <= 1
0 <= x22,12 <= 1
0 <= x22,13 <= 1
0 <= x22,14 <= 1
0 <= x22,15 <= 1
0 <= x23,6 <= 1
0 <= x23,7 <= 1
0 <= x23,8 <= 1
0 <= x23,9 <= 1
0 <= x23,10 <= 1
0 <= x23,11 <= 1
0 <= x23,12 <= 1
0 <= x23,13 <= 1
0 <= x23,14 <= 1
0 <= x24,7 <= 1
0 <= x24,8 <= 1
0 <= x24,9 <= 1
0 <= x24,10 <= 1
0 <= x24,11 <= 1
0 <= x24,12 <= 1
0 <= x25,7 <= 1
0 <= x25,8 <= 1
0 <= x25,9 <= 1
0 <= x25,10 <= 1
0 <= x25,11 <= 1
0 <= x25,12 <= 1
0 <= x26,6 <= 1
0 <= x26,7 <= 1
0 <= x26,8 <= 1
0 <= x26,9 <= 1
0 <= x26,10 <= 1
0 <= x26,11 <= 1
0 <= x27,6 <= 1
0 <= x27,7 <= 1
0 <= x27,8 <= 1
0 <= x27,9 <= 1
0 <= x27,10 <= 1
0 <= x27,11 <= 1
0 <= x28,5 <= 1
0 <= x28,6 <= 1
0 <= x28,7 <= 1
0 <= x28,8 <= 1
0 <= x28,9 <= 1
0 <= x28,10 <= 1
0 <= x29,5 <= 1
0 <= x29,6 <= 1
0 <= x29,7 <= 1
0 <= x29,8 <= 1
0 <= x29,9 <= 1
0 <= x29,10 <= 1
0 <= x30,5 <= 1
0 <= x30,6 <= 1
0 <= x30,7 <= 1
0 <= x30,8 <= 1
0 <= x30,9 <= 1
0 <= x30,10 <= 1
0 <= x31,5 <= 1
0 <= x31,6 <= 1
0 <= x31,7 <= 1
0 <= x31,8 <= 1
0 <= x31,9 <= 1
0 <= x31,10 <= 1
0 <= x32,3 <= 1
0 <= x32,4 <= 1
0 <= x32,5 <= 1
0 <= x32,6 <= 1
0 <= x32,7 <= 1
0 <= x32,8 <= 1
0 <= x33,3 <= 1
0 <= x33,4 <= 1
0 <= x33,5 <= 1
0 <= x33,6 <= 1
0 <= x33,7 <= 1
0 <= x33,8 <= 1
0 <= x34,3 <= 1
0 <= x34,4 <= 1
0 <= x34,5 <= 1
0 <= x34,6 <= 1
0 <= x34,7 <= 1
0 <= x34,8 <= 1
0 <= x35,3 <= 1
0 <= x35,4 <= 1
0 <= x35,5 <= 1
0 <= x35,6 <= 1
0 <= x35,7 <= 1
0 <= x35,8 <= 1
0 <= x36,3 <= 1
0 <= x36,4 <= 1
0 <= x36,5 <= 1
0 <= x36,6 <= 1
0 <= x36,7 <= 1
0 <= x36,8 <= 1
0 <= x37,3 <= 1
0 <= x37,4 <= 1
0 <= x37,5 <= 1
0 <= x37,6 <= 1
0 <= x37,7 <= 1
0 <= x37,8 <= 1
0 <= x38,3 <= 1
0 <= x38,4 <= 1
0 <= x38,5 <= 1
0 <= x38,6 <= 1
0 <= x38,7 <= 1
0 <= x38,8 <= 1
0 <= x39,3 <= 1
0 <= x39,4 <= 1
0 <= x39,5 <= 1
0 <= x39,6 <= 1
0 <= x39,7 <= 1
0 <= x39,8 <= 1
0 <= x40,2 <= 1
0 <= x40,3 <= 1
0 <= x40,4 <= 1
0 <= x40,5 <= 1
0 <= x40,6 <= 1
0 <= x40,7 <= 1
0 <= x41,2 <= 1
0 <= x41,3 <= 1
0 <= x41,4 <= 1
0 <= x41,5 <= 1
0 <= x41,6 <= 1
0 <= x41,7 <= 1
0 <= x42,2 <= 1
0 <= x42,3 <= 1
0 <= x42,4 <= 1
0 <= x42,5 <= 1
0 <= x42,6 <= 1
0 <= x42,7 <= 1
0 <= x43,2 <= 1
0 <= x43,3 <= 1
0 <= x43,4 <= 1
0 <= x43,5 <= 1
0 <= x43,6 <= 1
0 <= x43,7 <= 1
0 <= x44,5 <= 1
0 <= x44,6 <= 1
0 <= x44,7 <= 1
0 <= x44,8 <= 1
0 <= x44,9 <= 1
0 <= x44,10 <= 1
0 <= x44,11 <= 1
0 <= x44,12 <= 1
0 <= x44,13 <= 1
0 <= x45,5 <= 1
0 <= x45,6 <= 1
0 <= x45,7 <= 1
0 <= x45,8 <= 1
0 <= x45,9 <= 1
0 <= x45,10 <= 1
0 <= x45,11 <= 1
0 <= x45,12 <= 1
0 <= x45,13 <= 1
0 <= x46,5 <= 1
0 <= x46,6 <= 1
0 <= x46,7 <= 1
0 <= x46,8 <= 1
0 <= x46,9 <= 1
0 <= x46,10 <= 1
0 <= x46,11 <= 1
0 <= x46,12 <= 1
0 <= x46,13 <= 1
0 <= x47,5 <= 1
0 <= x47,6 <= 1
0 <= x47,7 <= 1
0 <= x47,8 <= 1
0 <= x47,9 <= 1
0 <= x47,10 <= 1
0 <= x47,11 <= 1
0 <= x47,12 <= 1
0 <= x47,13 <= 1
0 <= x48,3 <= 1
0 <= x48,4 <= 1
0 <= x48,5 <= 1
0 <= x48,6 <= 1
0 <= x48,7 <= 1
0 <= x48,8 <= 1
0 <= x48,9 <= 1
0 <= x48,10 <= 1
0 <= x48,11 <= 1
0 <= x49,3 <= 1
0 <= x49,4 <= 1
0 <= x49,5 <= 1
0 <= x49,6 <= 1
0 <= x49,7 <= 1
0 <= x49,8 <= 1
0 <= x49,9 <= 1
0 <= x49,10 <= 1
0 <= x49,11 <= 1
0 <= x50,3 <= 1
0 <= x50,4 <= 1
0 <= x50,5 <= 1
0 <= x50,6 <= 1
0 <= x50,7 <= 1
0 <= x50,8 <= 1
0 <= x50,9 <= 1
0 <= x50,10 <= 1
0 <= x50,11 <= 1
0 <= x51,3 <= 1
0 <= x51,4 <= 1
0 <= x51,5 <= 1
0 <= x51,6 <= 1
0 <= x51,7 <= 1
0 <= x51,8 <= 1
0 <= x51,9 <= 1
0 <= x51,10 <= 1
0 <= x51,11 <= 1
0 <= x52,3 <= 1
0 <= x52,4 <= 1
0 <= x52,5 <= 1
0 <= x52,6 <= 1
0 <= x52,7 <= 1
0 <= x52,8 <= 1
0 <= x52,9 <= 1
0 <= x52,10 <= 1
0 <= x52,11 <= 1
0 <= x53,3 <= 1
0 <= x53,4 <= 1
0 <= x53,5 <= 1
0 <= x53,6 <= 1
0 <= x53,7 <= 1
0 <= x53,8 <= 1
0 <= x53,9 <= 1
0 <= x53,10 <= 1
0 <= x53,11 <= 1
0 <= x54,2 <= 1
0 <= x54,3 <= 1
0 <= x54,4 <= 1
0 <= x54,5 <= 1
0 <= x54,6 <= 1
0 <= x54,7 <= 1
0 <= x54,8 <= 1
0 <= x54,9 <= 1
0 <= x54,10 <= 1
0 <= x55,2 <= 1
0 <= x55,3 <= 1
0 <= x55,4 <= 1
0 <= x55,5 <= 1
0 <= x55,6 <= 1
0 <= x55,7 <= 1
0 <= x55,8 <= 1
0 <= x55,9 <= 1
0 <= x55,10 <= 1
0 <= x56,2 <= 1
0 <= x56,3 <= 1
0 <= x56,4 <= 1
0 <= x56,5 <= 1
0 <= x56,6 <= 1
0 <= x56,7 <= 1
0 <= x56,8 <= 1
0 <= x56,9 <= 1
0 <= x56,10 <= 1
0 <= x57,2 <= 1
0 <= x57,3 <= 1
0 <= x57,4 <= 1
0 <= x57,5 <= 1
0 <= x57,6 <= 1
0 <= x57,7 <= 1
0 <= x57,8 <= 1
0 <= x57,9 <= 1
0 <= x57,10 <= 1
0 <= x58,1 <= 1
0 <= x58,2 <= 1
0 <= x58,3 <= 1
0 <= x58,4 <= 1
0 <= x58,5 <= 1
0 <= x58,6 <= 1
0 <= x59,1 <= 1
0 <= x59,2 <= 1
0 <= x59,3 <= 1
0 <= x59,4 <= 1
0 <= x59,5 <= 1
0 <= x59,6 <= 1
0 <= x60,1 <= 1
0 <= x60,2 <= 1
0 <= x60,3 <= 1
0 <= x60,4 <= 1
0 <= x60,5 <= 1
0 <= x60,6 <= 1
0 <= x61,1 <= 1
0 <= x61,2 <= 1
0 <= x61,3 <= 1
0 <= x61,4 <= 1
0 <= x61,5 <= 1
0 <= x61,6 <= 1
0 <= x62,1 <= 1
0 <= x62,2 <= 1
0 <= x62,3 <= 1
0 <= x62,4 <= 1
0 <= x62,5 <= 1
0 <= x62,6 <= 1
0 <= x62,7 <= 1
0 <= x62,8 <= 1
0 <= x62,9 <= 1
0 <= x63,1 <= 1
0 <= x63,2 <= 1
0 <= x63,3 <= 1
0 <= x63,4 <= 1
0 <= x63,5 <= 1
0 <= x63,6 <= 1
0 <= x63,7 <= 1
0 <= x63,8 <= 1
0 <= x63,9 <= 1
0 <= x64,1 <= 1
0 <= x64,2 <= 1
0 <= x64,3 <= 1
0 <= x64,4 <= 1
0 <= x64,5 <= 1
0 <= x64,6 <= 1
0 <= x64,7 <= 1
0 <= x64,8 <= 1
0 <= x64,9 <= 1
0 <= x65,1 <= 1
0 <= x65,2 <= 1
0 <= x65,3 <= 1
0 <= x65,4 <= 1
0 <= x65,5 <= 1
0 <= x65,6 <= 1
0 <= x65,7 <= 1
0 <= x65,8 <= 1
0 <= x65,9 <= 1
M1 >= 1
M2 >= 1
Generals
x0,7
x0,8
x0,9
x0,10
x0,11
x0,12
x0,13
x0,14
x0,15
x1,7
x1,8
x1,9
x1,10
x1,11
x1,12
x1,13
x1,14
x1,15
x2,6
x2,7
x2,8
x2,9
x2,10
x2,11
x2,12
x2,13
x2,14
x3,10
x3,11
x3,12
x3,13
x3,14
x3,15
x4,10
x4,11
x4,12
x4,13
x4,14
x4,15
x5,9
x5,10
x5,11
x5,12
x5,13
x5,14
x6,10
x6,11
x6,12
x6,13
x6,14
x6,15
x7,10
x7,11
x7,12
x7,13
x7,14
x7,15
x8,9
x8,10
x8,11
x8,12
x8,13
x8,14
x9,7
x9,8
x9,9
x9,10
x9,11
x9,12
x9,13
x9,14
x9,15
x10,7
x10,8
x10,9
x10,10
x10,11
x10,12
x10,13
x10,14
x10,15
x11,6
x11,7
x11,8
x11,9
x11,10
x11,11
x11,12
x11,13
x11,14
x12,7
x12,8
x12,9
x12,10
x12,11
x12,12
x12,13
x12,14
x12,15
x13,7
x13,8
x13,9
x13,10
x13,11
x13,12
x13,13
x13,14
x13,15
x14,6
x14,7
x14,8
x14,9
x14,10
x14,11
x14,12
x14,13
x14,14
x15,7
x15,8
x15,9
x15,10
x15,11
x15,12
x15,13
x15,14
x15,15
x16,7
x16,8
x16,9
x16,10
x16,11
x16,12
x16,13
x16,14
x16,15
x17,6
x17,7
x17,8
x17,9
x17,10
x17,11
x17,12
x17,13
x17,14
x18,7
x18,8
x18,9
x18,10
x18,11
x18,12
x18,13
x18,14
x18,15
x19,7
x19,8
x19,9
x19,10
x19,11
x19,12
x19,13
x19,14
x19,15
x20,6
x20,7
x20,8
x20,9
x20,10
x20,11
x20,12
x20,13
x20,14
x21,7
x21,8
x21,9
x21,10
x21,11
x21,12
x21,13
x21,14
x21,15
x22,7
x22,8
x22,9
x22,10
x22,11
x22,12
x22,13
x22,14
x22,15
x23,6
x23,7
x23,8
x23,9
x23,10
x23,11
x23,12
x23,13
x23,14
x24,7
x24,8
x24,9
x24,10
x24,11
x24,12
x25,7
x25,8
x25,9
x25,10
x25,11
x25,12
x26,6
x26,7
x26,8
x26,9
x26,10
x26,11
x27,6
x27,7
x27,8
x27,9
x27,10
x27,11
x28,5
x28,6
x28,7
x28,8
x28,9
x28,10
x29,5
x29,6
x29,7
x29,8
x29,9
x29,10
x30,5
x30,6
x30,7
x30,8
x30,9
x30,10
x31,5
x31,6
x31,7
x31,8
x31,9
x31,10
x32,3
x32,4
x32,5
x32,6
x32,7
x32,8
x33,3
x33,4
x33,5
x33,6
x33,7
x33,8
x34,3
x34,4
x34,5
x34,6
x34,7
x34,8
x35,3
x35,4
x35,5
x35,6
x35,7
x35,8
x36,3
x36,4
x36,5
x36,6
x36,7
x36,8
x37,3
x37,4
x37,5
x37,6
x37,7
x37,8
x38,3
x38,4
x38,5
x38,6
x38,7
x38,8
x39,3
x39,4
x39,5
x39,6
x39,7
x39,8
x40,2
x40,3
x40,4
x40,5
x40,6
x40,7
x41,2
x41,3
x41,4
x41,5
x41,6
x41,7
x42,2
x42,3
x42,4
x42,5
x42,6
x42,7
x43,2
x43,3
x43,4
x43,5
x43,6
x43,7
x44,5
x44,6
x44,7
x44,8
x44,9
x44,10
x44,11
x44,12
x44,13
x45,5
x45,6
x45,7
x45,8
x45,9
x45,10
x45,11
x45,12
x45,13
x46,5
x46,6
x46,7
x46,8
x46,9
x46,10
x46,11
x46,12
x46,13
x47,5
x47,6
x47,7
x47,8
x47,9
x47,10
x47,11
x47,12
x47,13
x48,3
x48,4
x48,5
x48,6
x48,7
x48,8
x48,9
x48,10
x48,11
x49,3
x49,4
x49,5
x49,6
x49,7
x49,8
x49,9
x49,10
x49,11
x50,3
x50,4
x50,5
x50,6
x50,7
x50,8
x50,9
x50,10
x50,11
x51,3
x51,4
x51,5
x51,6
x51,7
x51,8
x51,9
x51,10
x51,11
x52,3
x52,4
x52,5
x52,6
x52,7
x52,8
x52,9
x52,10
x52,11
x53,3
x53,4
x53,5
x53,6
x53,7
x53,8
x53,9
x53,10
x53,11
x54,2
x54,3
x54,4
x54,5
x54,6
x54,7
x54,8
x54,9
x54,10
x55,2
x55,3
x55,4
x55,5
x55,6
x55,7
x55,8
x55,9
x55,10
x56,2
x56,3
x56,4
x56,5
x56,6
x56,7
x56,8
x56,9
x56,10
x57,2
x57,3
x57,4
x57,5
x57,6
x57,7
x57,8
x57,9
x57,10
x58,1
x58,2
x58,3
x58,4
x58,5
x58,6
x59,1
x59,2
x59,3
x59,4
x59,5
x59,6
x60,1
x60,2
x60,3
x60,4
x60,5
x60,6
x61,1
x61,2
x61,3
x61,4
x61,5
x61,6
x62,1
x62,2
x62,3
x62,4
x62,5
x62,6
x62,7
x62,8
x62,9
x63,1
x63,2
x63,3
x63,4
x63,5
x63,6
x63,7
x63,8
x63,9
x64,1
x64,2
x64,3
x64,4
x64,5
x64,6
x64,7
x64,8
x64,9
x65,1
x65,2
x65,3
x65,4
x65,5
x65,6
x65,7
x65,8
x65,9
M1
M2
End
